WARNING: for repeatability, setting FPU to use double precision
============================[ Problem Statistics ]=============================
|                                                                             |
|  Number of variables:           100                                         |
|  Number of clauses:             449                                         |
|  Parse time:                   0.00 s                                       |
|  Eliminated clauses:           0.00 Mb                                      |
|  Simplification time:          0.00 s                                       |
|                                                                             |
============================[ Search Statistics ]==============================
| Conflicts |          ORIGINAL         |          LEARNT          | Progress |
|           |    Vars  Clauses Literals |    Limit  Clauses Lit/Cl |          |
===============================================================================
|       100 |      99      447     1348 |      163      100      7 |  0.010 % |
===============================================================================
restarts              : 2
conflicts             : 147            (53299 /sec)
decisions             : 197            (0.00 % random) (71429 /sec)
propagations          : 3474           (1259608 /sec)
conflict literals     : 1017           (13.08 % deleted)
Memory used           : 13.00 MB
CPU time              : 0.002758 s

SATISFIABLE
